
Log started (V11.0.0) Thu May 15 00:50:22 2008

Tried aggregator 1 time.
Reduced MIP has 150 rows, 5001 columns, and 10050 nonzeros.
Presolve time =    0.03 sec.
Clique table members: 100.
MIP emphasis: balance optimality and feasibility.
MIP search method: dynamic search.
Parallel mode: none, using 1 thread.
Root relaxation solution time =    0.20 sec.

        Nodes                                         Cuts/
   Node  Left     Objective  IInf  Best Integer     Best Node    ItCnt     Gap

*     0+    0                        11054.0000      200.1402      518   98.19%
*     0+    0                          202.0000      200.1402      518    0.92%
      0     0      201.0000    62      202.0000      Fract: 4      533    0.50%
      0     0      201.0000    74      202.0000   Flowcuts: 1      556    0.50%
      0     0      201.0000    76      202.0000      Cuts: 11      565    0.50%
      0     2      201.0000    76      202.0000      201.0000      565    0.50%
    100     6    infeasible            202.0000      201.0000    18332    0.50%
    200     8      201.0000    55      202.0000      201.0000    56634    0.50%
    300    10    infeasible            202.0000      201.0000    92650    0.50%
    400    12      201.0000    66      202.0000      201.0000   132560    0.50%
    500    14    infeasible            202.0000      201.0000   175574    0.50%

Clique cuts applied:  1
Cover cuts applied:  1
Implied bound cuts applied:  7
Flow cuts applied:  2
Gomory fractional cuts applied:  1

Solution pool: 2 solutions saved.

MIP - Integer optimal solution:  Objective = 2.0200000000e+002
Solution time =   28.83 sec.  Iterations = 189899  Nodes = 531


Incumbent solution
Variable Name           Solution Value
Cmax                        202.000000
X_1_38                        1.000000
X_2_20                        1.000000
X_3_27                        1.000000
X_4_39                        1.000000
X_5_47                        1.000000
X_6_34                        1.000000
X_7_14                        1.000000
X_8_48                        1.000000
X_9_41                        1.000000
X_10_42                       1.000000
X_11_20                       1.000000
X_12_34                       1.000000
X_13_5                        1.000000
X_14_6                        1.000000
X_15_9                        1.000000
X_16_38                       1.000000
X_17_37                       1.000000
X_18_33                       1.000000
X_19_29                       1.000000
X_20_17                       1.000000
X_21_24                       1.000000
X_22_8                        1.000000
X_23_46                       1.000000
X_24_31                       1.000000
X_25_21                       1.000000
X_26_37                       1.000000
X_27_6                        1.000000
X_28_45                       1.000000
X_29_48                       1.000000
X_30_45                       1.000000
X_31_40                       1.000000
X_32_30                       1.000000
X_33_46                       1.000000
X_34_2                        1.000000
X_35_22                       1.000000
X_36_12                       1.000000
X_37_15                       1.000000
X_38_44                       1.000000
X_39_17                       1.000000
X_40_28                       1.000000
X_41_9                        1.000000
X_42_3                        1.000000
X_43_50                       1.000000
X_44_14                       1.000000
X_45_10                       1.000000
X_46_16                       1.000000
X_47_26                       1.000000
X_48_11                       1.000000
X_49_12                       1.000000
X_50_13                       1.000000
X_51_44                       1.000000
X_52_42                       1.000000
X_53_21                       1.000000
X_54_13                       1.000000
X_55_27                       1.000000
X_56_4                        1.000000
X_57_43                       1.000000
X_58_10                       1.000000
X_59_5                        1.000000
X_60_16                       1.000000
X_61_1                        1.000000
X_62_36                       1.000000
X_63_31                       1.000000
X_64_29                       1.000000
X_65_4                        1.000000
X_66_41                       1.000000
X_67_11                       1.000000
X_68_7                        1.000000
X_69_26                       1.000000
X_70_25                       1.000000
X_71_39                       1.000000
X_72_49                       1.000000
X_73_23                       1.000000
X_74_7                        1.000000
X_75_43                       1.000000
X_76_30                       1.000000
X_77_3                        1.000000
X_78_19                       1.000000
X_79_18                       1.000000
X_80_28                       1.000000
X_81_22                       1.000000
X_82_33                       1.000000
X_83_32                       1.000000
X_84_8                        1.000000
X_85_36                       1.000000
X_86_49                       1.000000
X_87_35                       1.000000
X_88_2                        1.000000
X_89_23                       1.000000
X_90_1                        1.000000
X_91_50                       1.000000
X_92_35                       1.000000
X_93_19                       1.000000
X_94_24                       1.000000
X_95_32                       1.000000
X_96_25                       1.000000
X_97_15                       1.000000
X_98_47                       1.000000
X_99_40                       1.000000
X_100_18                      1.000000
All other variables in the range 1-5001 are 0.
